p cnf 120 423
3 -2 0
3 -2 0
2 -3 0
3 -4 -5 0
-3 4 -5 0
3 4 5 0
-3 -4 5 0
6 5 -7 0
-6 -5 -7 0
6 -5 7 0
-6 5 7 0
7 -4 -8 0
-7 4 -8 0
7 4 8 0
-7 -4 8 0
-5 -8 -9 0
5 8 -9 0
-5 8 9 0
5 -8 9 0
-10 -11 -12 0
10 11 -12 0
-10 11 12 0
10 -11 12 0
13 10 0
13 12 0
-10 -12 -13 0
14 1 0
14 13 0
-1 -13 -14 0
-15 -14 0
-15 7 0
14 -7 15 0
16 -9 0
16 -15 0
9 15 -16 0
17 -1 0
17 16 0
1 -16 -17 0
4 18 -19 0
-4 -18 -19 0
4 -18 19 0
-4 18 19 0
-20 -19 0
-20 15 0
19 -15 20 0
21 20 0
21 -7 0
-20 7 -21 0
-22 7 0
-22 19 0
-7 -19 22 0
23 -21 0
23 -22 0
21 22 -23 0
-25 24 0
-25 -24 0
-25 -7 -26 0
25 7 -26 0
-25 7 26 0
25 -7 26 0
27 23 0
27 -26 0
-23 26 -27 0
-28 4 0
-28 2 0
-4 -2 28 0
-28 -29 -30 0
28 29 -30 0
-28 29 30 0
28 -29 30 0
-31 -20 0
-31 -30 0
20 30 31 0
-32 -31 0
-32 -1 0
31 1 32 0
34 -19 0
34 33 0
19 -33 -34 0
-35 29 0
-35 29 0
-29 35 0
-36 -2 0
-36 35 0
2 -35 36 0
-37 34 0
-37 36 0
-34 -36 37 0
38 6 0
38 10 0
-6 -10 -38 0
-39 -37 0
-39 -38 0
37 38 39 0
40 39 0
40 -13 0
-39 13 -40 0
41 -32 0
41 40 0
32 -40 -41 0
-25 14 -42 0
25 -14 -42 0
-25 -14 42 0
25 14 42 0
-43 5 0
-43 -42 0
-5 42 43 0
44 -1 0
44 2 0
1 -2 -44 0
-45 43 0
-45 -44 0
-43 44 45 0
46 41 0
46 -45 0
-41 45 -46 0
27 46 -47 0
-27 -46 -47 0
27 -46 47 0
-27 46 47 0
48 12 0
48 -33 0
-12 33 -48 0
-49 -47 0
-49 48 0
47 -48 49 0
51 11 0
51 -50 0
-11 50 -51 0
-33 -29 -53 0
33 29 -53 0
-33 29 53 0
33 -29 53 0
54 52 0
54 -53 0
-52 53 -54 0
-54 5 -55 0
54 -5 -55 0
-54 -5 55 0
54 5 55 0
56 -55 0
56 -37 0
55 37 -56 0
-51 56 -57 0
51 -56 -57 0
-51 -56 57 0
51 56 57 0
58 -49 0
58 -57 0
49 57 -58 0
59 42 0
59 39 0
-42 -39 -59 0
60 -7 0
60 59 0
7 -59 -60 0
-61 -58 0
-61 60 0
58 -60 61 0
17 -61 -62 0
-17 61 -62 0
17 61 62 0
-17 -61 62 0
-63 5 0
-63 33 0
-5 -33 63 0
-54 -20 -64 0
54 20 -64 0
-54 20 64 0
54 -20 64 0
-65 -63 0
-65 -64 0
63 64 65 0
66 -63 0
66 8 0
63 -8 -66 0
-18 -36 -67 0
18 36 -67 0
-18 36 67 0
18 -36 67 0
66 67 -68 0
-66 -67 -68 0
66 -67 68 0
-66 67 68 0
35 18 -69 0
-35 -18 -69 0
35 -18 69 0
-35 18 69 0
68 69 -70 0
-68 -69 -70 0
68 -69 70 0
-68 69 70 0
-65 -70 -71 0
65 70 -71 0
-65 70 71 0
65 -70 71 0
-72 18 0
-72 22 0
-18 -22 72 0
-73 -34 0
-73 12 0
34 -12 73 0
74 73 0
74 59 0
-73 -59 -74 0
-76 11 0
-76 -75 0
-11 75 76 0
77 -63 0
77 14 0
63 -14 -77 0
-78 76 0
-78 77 0
-76 -77 78 0
79 -11 0
79 20 0
11 -20 -79 0
80 -78 0
80 79 0
78 -79 -80 0
-81 -74 0
-81 -80 0
74 80 81 0
72 81 -82 0
-72 -81 -82 0
72 -81 82 0
-72 81 82 0
83 -71 0
83 -82 0
71 82 -83 0
-84 -73 0
-84 -12 0
73 12 84 0
85 9 0
85 -76 0
-9 76 -85 0
30 -85 -86 0
-30 85 -86 0
30 85 86 0
-30 -85 86 0
84 86 -87 0
-84 -86 -87 0
84 -86 87 0
-84 86 87 0
88 -22 0
88 -12 0
22 12 -88 0
-87 -88 -89 0
87 88 -89 0
-87 88 89 0
87 -88 89 0
90 -83 0
90 89 0
83 -89 -90 0
-55 -11 -91 0
55 11 -91 0
-55 11 91 0
55 -11 91 0
92 22 0
92 -91 0
-22 91 -92 0
93 -63 0
93 20 0
63 -20 -93 0
-94 -92 0
-94 93 0
92 -93 94 0
29 36 -96 0
-29 -36 -96 0
29 -36 96 0
-29 36 96 0
97 95 0
97 -96 0
-95 96 -97 0
98 -94 0
98 -97 0
94 97 -98 0
99 15 0
99 -76 0
-15 76 -99 0
-100 -99 0
-100 96 0
99 -96 100 0
101 -59 0
101 7 0
59 -7 -101 0
-2 91 -102 0
2 -91 -102 0
-2 -91 102 0
2 91 102 0
-66 20 -103 0
66 -20 -103 0
-66 -20 103 0
66 20 103 0
104 102 0
104 -103 0
-102 103 -104 0
105 101 0
105 -104 0
-101 104 -105 0
106 -100 0
106 -105 0
100 105 -106 0
-107 -64 0
-107 12 0
64 -12 107 0
59 -107 -108 0
-59 107 -108 0
59 107 108 0
-59 -107 108 0
-106 108 -109 0
106 -108 -109 0
-106 -108 109 0
106 108 109 0
-98 109 -110 0
98 -109 -110 0
-98 -109 110 0
98 109 110 0
-11 -42 -111 0
11 42 -111 0
-11 42 111 0
11 -42 111 0
112 -99 0
112 38 0
99 -38 -112 0
-113 -111 0
-113 112 0
111 -112 113 0
110 -113 -114 0
-110 113 -114 0
110 113 114 0
-110 -113 114 0
-115 29 0
-115 25 0
-29 -25 115 0
-116 -7 0
-116 29 0
7 -29 116 0
-117 -115 0
-117 116 0
115 -116 117 0
118 114 0
118 -117 0
-114 117 -118 0
90 -118 -119 0
-90 118 -119 0
90 118 119 0
-90 -118 119 0
62 119 -120 0
-62 -119 -120 0
62 -119 120 0
-62 119 120 0
-16 79 83 0
-95 -114 23 -41 -36 0
-120 -96 -64 0
64 73 -43 109 -97 0
-56 -103 -114 -117 -23 0
47 63 46 0
109 63 6 51 -39 0
-46 31 -35 0
-42 99 92 -81 -91 0
26 -42 -46 -94 85 0
-8 -93 0
-32 58 -70 -27 0
-110 -94 100 -20 91 0
-49 80 -65 -92 0
-13 113 50 -120 -31 -58 0
-33 18 -71 -17 62 95 0
94 -6 57 114 21 0
-22 -35 36 120 -24 0
3 -1 0
-84 -39 -57 -59 28 0
90 110 48 63 20 0
117 -18 -49 -44 114 -56 0
68 -113 47 -11 0
-52 -8 0
-47 16 48 109 -7 0
118 -116 1 -83 0
70 -4 -60 -112 0
21 28 109 111 101 0
1 4 -61 114 0
-25 48 94 14 -34 0
-16 -77 11 -56 23 0
48 98 -68 95 51 0
105 -74 11 86 0
-19 113 0
-40 8 94 -11 0
83 108 -26 5 44 -43 0
27 -26 13 0
-26 -116 -101 98 -39 88 0
77 -88 -1 -51 69 0
-60 23 109 59 3 34 0
104 -21 -45 0
-83 42 113 -20 67 31 0
-100 36 110 0
-26 -119 0
34 10 -112 -44 -65 29 0
-119 38 -20 0
59 -60 -56 2 -21 30 0
57 28 0
51 -66 81 -47 -12 0
10 84 -81 71 -82 0
-92 -98 -28 87 103 -106 0
105 30 19 0
84 -33 0
12 -68 40 -83 71 0
-74 109 -86 0
14 45 39 -5 99 44 0
20 66 116 109 35 0
93 -72 71 -25 -90 -32 0
5 95 1 26 0
53 54 -109 65 17 0
72 40 80 70 0
21 -41 28 71 0
-34 -63 8 90 0
-83 26 119 49 0
25 116 0
31 -7 77 -114 0
117 89 48 83 33 -65 0
68 86 -117 0
-37 -50 -2 0
-40 51 100 -120 -81 0
120 0
